1 1 -2 0
1 3 -4 0
1 2 -5 0
1 -2 -6 0
1 2 -7 0
1 2 8 0
1 -9 -5 0
1 -9 -10 0
1 -9 -11 0
1 -12 -13 0
1 12 -14 0
1 12 -6 0
1 12 -9 0
1 -12 -15 0
1 8 -16 0
1 8 7 0
1 8 -17 0
1 8 -2 0
1 16 18 0
1 -16 -4 0
1 -19 -20 0
1 -19 21 0
1 -22 23 0
1 22 13 0
1 24 -25 0
1 24 16 0
1 -24 26 0
1 -24 -19 0
1 4 -22 0
1 4 -6 0
1 -4 26 0
1 -17 18 0
1 17 -16 0
1 -17 27 0
1 17 28 0
1 -18 5 0
1 -18 27 0
1 18 17 0
1 -18 29 0
1 -30 4 0
1 25 -31 0
1 26 23 0
1 -21 -32 0
1 21 22 0
1 21 -20 0
1 -21 33 0
1 21 26 0
1 21 19 0
1 -20 -34 0
1 31 22 0
1 31 35 0
1 23 -33 0
1 -23 27 0
1 23 26 0
1 -23 36 0
1 37 -38 0
1 -39 -40 0
1 39 -41 0
1 42 -43 0
1 42 -40 0
1 -42 -39 0
1 -44 43 0
1 44 14 0
1 -44 45 0
1 -44 46 0
1 -47 48 0
1 -47 -37 0
1 -49 43 0
1 49 37 0
1 15 50 0
1 -15 44 0
1 15 -51 0
1 14 50 0
1 14 9 0
1 -14 44 0
1 14 12 0
1 -11 52 0
1 11 -53 0
1 11 44 0
1 -11 -19 0
1 -11 -54 0
1 11 -55 0
1 -13 -56 0
1 13 52 0
1 -50 14 0
1 -50 -40 0
1 -57 -14 0
1 57 -58 0
1 -57 15 0
1 57 -39 0
1 -56 -59 0
1 56 -13 0
1 56 60 0
1 -56 -39 0
1 -60 -61 0
1 60 13 0
1 -60 14 0
1 60 -62 0
1 28 7 0
1 -28 -57 0
1 -28 12 0
1 5 -50 0
1 -5 7 0
1 5 -17 0
1 5 12 0
1 -5 2 0
1 29 -18 0
1 -29 -53 0
1 -29 10 0
1 29 63 0
1 -64 10 0
1 -64 -17 0
1 -64 55 0
1 53 -65 0
1 -53 -66 0
1 -53 -27 0
1 -53 -36 0
1 -53 -67 0
1 52 -59 0
1 -52 5 0
1 27 -18 0
1 -27 -4 0
1 27 -24 0
1 67 24 0
1 -68 -69 0
1 -68 -63 0
1 -36 -69 0
1 36 70 0
1 -36 31 0
1 -36 63 0
1 36 55 0
1 -36 -71 0
1 -70 33 0
1 -72 73 0
1 -72 74 0
1 -72 68 0
1 -72 36 0
1 10 -64 0
1 -10 65 0
1 -10 68 0
1 -10 -75 0
1 -63 -29 0
1 -63 -76 0
1 33 23 0
1 77 -72 0
1 -77 78 0
1 77 79 0
1 -77 80 0
1 -77 81 0
1 74 69 0
1 -74 79 0
1 82 -83 0
1 82 76 0
1 80 -84 0
1 -80 33 0
1 69 74 0
1 -69 33 0
1 -69 85 0
1 -79 86 0
1 -79 -77 0
1 78 87 0
1 -78 74 0
1 78 82 0
1 88 -89 0
1 90 83 0
1 84 83 0
1 85 -69 0
1 -85 -84 0
1 85 80 0
1 89 -88 0
1 -89 -91 0
1 89 -92 0
1 -35 87 0
1 -35 84 0
1 83 93 0
1 83 87 0
1 -38 -94 0
1 -38 -95 0
1 -96 97 0
1 -96 -98 0
1 -99 97 0
1 -99 96 0
1 -99 -54 0
1 -97 -99 0
1 -97 100 0
1 101 -102 0
1 -101 -100 0
1 -94 103 0
1 -94 104 0
1 -51 47 0
1 -51 -99 0
1 -51 -105 0
1 106 -47 0
1 -106 -14 0
1 -106 99 0
1 54 -107 0
1 -54 108 0
1 54 49 0
1 109 13 0
1 109 -110 0
1 -110 -54 0
1 98 -43 0
1 -98 -109 0
1 98 -111 0
1 -98 45 0
1 112 -113 0
1 -112 -109 0
1 -112 96 0
1 112 114 0
1 112 41 0
1 -115 -106 0
1 -115 -103 0
1 -115 -41 0
1 -45 107 0
1 45 -44 0
1 -45 -28 0
1 -45 -110 0
1 -43 -107 0
1 43 42 0
1 43 98 0
1 43 116 0
1 -43 -60 0
1 -43 45 0
1 -111 -61 0
1 -111 -56 0
1 -61 -108 0
1 -61 -117 0
1 61 60 0
1 107 -43 0
1 107 58 0
1 -116 -111 0
1 -116 118 0
1 119 113 0
1 119 61 0
1 119 -120 0
1 -119 45 0
1 -119 -54 0
1 -108 120 0
1 -108 54 0
1 108 -118 0
1 -108 119 0
1 58 52 0
1 -58 -27 0
1 58 57 0
1 59 58 0
1 -121 107 0
1 -121 -122 0
1 -71 117 0
1 71 123 0
1 124 125 0
1 -124 126 0
1 -124 65 0
1 -124 111 0
1 -124 76 0
1 48 -126 0
1 -48 -127 0
1 48 -128 0
1 48 -121 0
1 48 58 0
1 48 -111 0
1 -48 -118 0
1 117 -126 0
1 -117 129 0
1 -65 -33 0
1 -65 -123 0
1 -65 62 0
1 81 130 0
1 81 -55 0
1 -81 123 0
1 81 77 0
1 131 132 0
1 131 133 0
1 76 66 0
1 76 62 0
1 -76 -82 0
1 -76 -134 0
1 -76 -135 0
1 130 132 0
1 130 -136 0
1 -130 137 0
1 132 65 0
1 132 81 0
1 122 126 0
1 -122 129 0
1 -122 71 0
1 62 138 0
1 -62 139 0
1 -62 140 0
1 62 60 0
1 -141 -126 0
1 -141 -142 0
1 141 -66 0
1 141 70 0
1 141 79 0
1 -75 -78 0
1 75 -130 0
1 -75 -129 0
1 143 73 0
1 -143 -140 0
1 -143 144 0
1 143 145 0
1 -137 146 0
1 133 -93 0
1 133 141 0
1 -133 -131 0
1 133 147 0
1 -133 -148 0
1 133 -137 0
1 142 149 0
1 142 -134 0
1 142 141 0
1 142 -137 0
1 134 138 0
1 -134 -131 0
1 -134 -137 0
1 -134 76 0
1 134 150 0
1 87 -79 0
1 -151 -78 0
1 151 -80 0
1 -151 152 0
1 93 -73 0
1 93 145 0
1 -148 -153 0
1 -145 154 0
1 145 -148 0
1 -145 151 0
1 -145 155 0
1 73 72 0
1 -73 -87 0
1 73 -91 0
1 -144 -87 0
1 -144 148 0
1 -144 156 0
1 -152 -87 0
1 -152 143 0
1 -152 148 0
1 -152 151 0
1 -157 -86 0
1 158 -145 0
1 -158 159 0
1 -154 160 0
1 154 -92 0
1 -153 161 0
1 -153 -162 0
1 153 163 0
1 164 91 0
1 -164 148 0
1 164 165 0
1 -86 -166 0
1 -86 -167 0
1 -86 -168 0
1 169 -93 0
1 169 -167 0
1 -169 -91 0
1 -169 165 0
1 163 -164 0
1 -163 170 0
1 -171 172 0
1 -173 -153 0
1 173 -174 0
1 161 164 0
1 161 175 0
1 175 -171 0
1 -175 176 0
1 -159 -154 0
1 -159 177 0
1 -159 -163 0
1 178 -161 0
1 178 176 0
1 179 180 0
1 -181 182 0
1 181 -179 0
1 -183 -184 0
1 -183 -105 0
1 185 -95 0
1 186 -95 0
1 -182 -95 0
1 105 187 0
1 105 101 0
1 -105 180 0
1 -188 -183 0
1 188 187 0
1 189 94 0
1 189 183 0
1 -184 -183 0
1 184 101 0
1 -184 -185 0
1 -190 -191 0
1 190 100 0
1 -190 181 0
1 -190 -103 0
1 190 105 0
1 190 -179 0
1 -190 192 0
1 -192 193 0
1 -192 -179 0
1 187 194 0
1 180 -194 0
1 180 195 0
1 -180 189 0
1 180 -196 0
1 103 -197 0
1 103 -101 0
1 -103 -192 0
1 100 97 0
1 100 101 0
1 193 191 0
1 193 -198 0
1 193 -190 0
1 193 102 0
1 -193 199 0
1 -193 -192 0
1 -191 197 0
1 200 191 0
1 200 201 0
1 -200 189 0
1 200 -202 0
1 197 -100 0
1 197 -114 0
1 -197 193 0
1 -197 -189 0
1 -203 184 0
1 203 195 0
1 203 103 0
1 -204 194 0
1 -204 -184 0
1 204 -103 0
1 -114 58 0
1 114 110 0
1 113 194 0
1 -113 115 0
1 -113 -200 0
1 -113 -199 0
1 113 -119 0
1 120 -205 0
1 -120 200 0
1 -120 199 0
1 -206 -197 0
1 206 -108 0
1 -206 -102 0
1 199 -113 0
1 -199 127 0
1 199 193 0
1 199 -118 0
1 -198 -207 0
1 198 -127 0
1 198 -120 0
1 -198 -193 0
1 198 199 0
1 -102 -113 0
1 -102 -191 0
1 -102 120 0
1 102 -193 0
1 -205 -113 0
1 205 208 0
1 -205 120 0
1 128 -209 0
1 128 108 0
1 -128 116 0
1 128 119 0
1 118 107 0
1 -118 128 0
1 -127 -208 0
1 127 -199 0
1 135 -210 0
1 135 -211 0
1 135 -212 0
1 212 127 0
1 -212 -213 0
1 -212 -214 0
1 -212 -206 0
1 -209 -215 0
1 -209 126 0
1 209 120 0
1 209 118 0
1 -216 -215 0
1 -216 206 0
1 -217 213 0
1 217 218 0
1 -126 -124 0
1 -126 123 0
1 129 -209 0
1 129 -211 0
1 -129 123 0
1 129 62 0
1 129 219 0
1 -140 125 0
1 140 -143 0
1 -140 -62 0
1 146 220 0
1 146 -125 0
1 146 -209 0
1 146 211 0
1 -146 62 0
1 210 107 0
1 -210 221 0
1 -210 140 0
1 210 222 0
1 -210 136 0
1 210 129 0
1 -222 126 0
1 -222 127 0
1 -222 -129 0
1 -223 213 0
1 223 -135 0
1 211 215 0
1 211 140 0
1 211 -126 0
1 211 108 0
1 -211 -129 0
1 138 -87 0
1 -138 -125 0
1 -138 222 0
1 -136 138 0
1 136 213 0
1 -136 -62 0
1 -136 132 0
1 -221 -224 0
1 221 220 0
1 -221 225 0
1 221 -142 0
1 221 222 0
1 -221 -226 0
1 226 -125 0
1 -226 -142 0
1 -125 -221 0
1 -227 -160 0
1 -227 -123 0
1 -227 -146 0
1 -227 156 0
1 -220 228 0
1 -220 229 0
1 220 136 0
1 149 142 0
1 -149 -66 0
1 -147 125 0
1 147 -66 0
1 -147 -91 0
1 147 133 0
1 160 -230 0
1 -160 -231 0
1 160 -152 0
1 -225 149 0
1 -225 -172 0
1 225 226 0
1 230 225 0
1 -230 232 0
1 -230 -174 0
1 -230 156 0
1 233 234 0
1 233 -160 0
1 233 -226 0
1 -233 -139 0
1 139 235 0
1 -139 -147 0
1 -170 169 0
1 -170 225 0
1 -170 -236 0
1 -172 -171 0
1 -172 -237 0
1 172 86 0
1 172 -230 0
1 172 -152 0
1 -167 -238 0
1 -167 -239 0
1 -167 169 0
1 -167 -161 0
1 236 240 0
1 -236 166 0
1 236 -172 0
1 236 -231 0
1 -236 -165 0
1 231 177 0
1 -231 -133 0
1 -237 234 0
1 -237 172 0
1 -237 -241 0
1 150 -242 0
1 150 243 0
1 -150 -241 0
1 150 -244 0
1 150 170 0
1 -165 238 0
1 -165 239 0
1 166 -239 0
1 -166 -164 0
1 -166 153 0
1 -166 165 0
1 177 -239 0
1 177 -231 0
1 -240 238 0
1 -240 236 0
1 240 177 0
1 -240 162 0
1 155 245 0
1 155 246 0
1 155 176 0
1 -239 245 0
1 -239 -240 0
1 -239 166 0
1 -239 -167 0
1 239 177 0
1 247 177 0
1 238 247 0
1 -238 248 0
1 238 -177 0
1 -176 249 0
1 -176 -250 0
1 176 178 0
1 -176 92 0
1 -249 -92 0
1 251 252 0
1 -253 -162 0
1 162 -153 0
1 254 -255 0
1 254 -256 0
1 -254 176 0
1 -168 -249 0
1 168 -251 0
1 250 249 0
1 250 -169 0
1 250 -177 0
1 256 -254 0
1 256 -162 0
1 256 257 0
1 258 245 0
1 -255 259 0
1 -255 -257 0
1 260 261 0
1 260 -255 0
1 -260 -257 0
1 260 262 0
1 260 263 0
1 262 -256 0
1 262 260 0
1 -262 -258 0
1 -252 -253 0
1 252 175 0
1 257 -255 0
1 -261 253 0
1 195 -204 0
1 -195 -264 0
1 -195 265 0
1 -195 -266 0
1 -194 204 0
1 267 -268 0
1 267 -120 0
1 -267 269 0
1 267 270 0
1 -267 196 0
1 -268 267 0
1 -265 -208 0
1 265 -201 0
1 -265 267 0
1 -266 268 0
1 -266 -271 0
1 264 270 0
1 -270 267 0
1 270 182 0
1 -201 -128 0
1 -201 -102 0
1 201 266 0
1 202 -204 0
1 202 197 0
1 -202 200 0
1 -208 272 0
1 208 -273 0
1 -208 -274 0
1 208 102 0
1 -208 -196 0
1 -271 -275 0
1 271 208 0
1 271 102 0
1 -271 135 0
1 269 -275 0
1 -269 -208 0
1 269 276 0
1 -269 -202 0
1 -275 268 0
1 275 208 0
1 -273 -277 0
1 -273 -201 0
1 273 271 0
1 196 201 0
1 196 276 0
1 196 271 0
1 -196 -278 0
1 207 272 0
1 207 -198 0
1 207 126 0
1 207 -279 0
1 219 207 0
1 280 -281 0
1 280 -282 0
1 218 272 0
1 218 -283 0
1 -218 284 0
1 279 281 0
1 279 -208 0
1 -279 -285 0
1 279 218 0
1 281 -280 0
1 -281 -286 0
1 -281 271 0
1 274 -208 0
1 274 287 0
1 274 -219 0
1 -274 271 0
1 272 -277 0
1 -272 -280 0
1 -272 207 0
1 272 -208 0
1 215 283 0
1 215 -282 0
1 -215 -216 0
1 215 212 0
1 -213 -211 0
1 -224 -288 0
1 -224 283 0
1 -224 -284 0
1 224 -289 0
1 -286 282 0
1 286 -279 0
1 -286 -284 0
1 290 -291 0
1 290 292 0
1 282 218 0
1 -284 293 0
1 284 -294 0
1 -284 213 0
1 283 215 0
1 -283 205 0
1 283 280 0
1 -283 -295 0
1 228 210 0
1 228 -222 0
1 -292 228 0
1 292 -296 0
1 -297 298 0
1 291 -299 0
1 291 -300 0
1 -291 290 0
1 -291 214 0
1 214 228 0
1 -214 -291 0
1 214 -301 0
1 -300 -224 0
1 -300 291 0
1 289 -297 0
1 -289 286 0
1 -296 224 0
1 -296 293 0
1 -296 292 0
1 296 302 0
1 -235 -125 0
1 235 -293 0
1 235 -139 0
1 303 -304 0
1 303 305 0
1 303 306 0
1 303 174 0
1 -305 167 0
1 -305 307 0
1 305 -214 0
1 -299 297 0
1 307 308 0
1 -307 222 0
1 307 309 0
1 -307 -241 0
1 -298 297 0
1 310 -311 0
1 -310 211 0
1 310 312 0
1 -310 313 0
1 -244 -314 0
1 234 314 0
1 234 -244 0
1 241 -315 0
1 241 -312 0
1 -315 -316 0
1 -315 -241 0
1 304 317 0
1 -304 318 0
1 -304 -244 0
1 -304 303 0
1 -306 -242 0
1 -306 315 0
1 306 234 0
1 306 305 0
1 -306 243 0
1 -314 -317 0
1 314 315 0
1 -314 234 0
1 314 -319 0
1 243 -320 0
1 243 247 0
1 -243 -306 0
1 -242 308 0
1 -248 -304 0
1 248 -247 0
1 248 -321 0
1 -322 -316 0
1 -322 247 0
1 320 -315 0
1 320 248 0
1 -320 241 0
1 -320 232 0
1 232 -241 0
1 -232 -230 0
1 232 263 0
1 316 -315 0
1 -316 -243 0
1 -316 323 0
1 -323 -318 0
1 323 -139 0
1 246 239 0
1 246 320 0
1 246 -324 0
1 246 318 0
1 -246 -325 0
1 245 -317 0
1 245 -320 0
1 -259 -326 0
1 -263 -259 0
1 263 168 0
1 263 321 0
1 -324 -246 0
1 -324 263 0
1 -325 -324 0
1 -325 -231 0
1 -325 263 0
1 -321 -263 0
1 -277 275 0
1 277 273 0
1 277 276 0
1 277 327 0
1 -277 -196 0
1 -276 -272 0
1 287 -328 0
1 -287 -274 0
1 -329 -288 0
1 -329 330 0
1 -329 -331 0
1 331 294 0
1 -331 -266 0
1 -332 -276 0
1 -332 -327 0
1 -327 270 0
1 333 -329 0
1 -333 -279 0
1 -294 334 0
1 294 272 0
1 -294 333 0
1 -294 -281 0
1 -335 334 0
1 -335 -336 0
1 295 335 0
1 295 334 0
1 -295 -337 0
1 295 -328 0
1 -338 334 0
1 -338 -339 0
1 334 340 0
1 -334 -333 0
1 -334 293 0
1 328 -273 0
1 -278 333 0
1 -278 -341 0
1 -278 295 0
1 -302 293 0
1 -302 -284 0
1 -302 289 0
1 -293 -338 0
1 342 334 0
1 -342 296 0
1 -342 -285 0
1 -342 289 0
1 -343 344 0
1 -343 296 0
1 343 336 0
1 -343 -285 0
1 343 345 0
1 343 -289 0
1 -285 346 0
1 -285 -347 0
1 285 311 0
1 285 348 0
1 344 293 0
1 -344 -348 0
1 -344 -313 0
1 -344 342 0
1 -336 349 0
1 336 274 0
1 -337 343 0
1 313 350 0
1 313 -296 0
1 313 -285 0
1 -311 350 0
1 -311 313 0
1 311 214 0
1 -312 351 0
1 -312 241 0
1 312 352 0
1 347 298 0
1 -347 -350 0
1 -347 351 0
1 347 310 0
1 -345 -347 0
1 -345 -311 0
1 -353 -354 0
1 -353 311 0
1 -353 355 0
1 353 -342 0
1 356 -311 0
1 356 -343 0
1 -356 355 0
1 356 348 0
1 356 342 0
1 -350 357 0
1 350 -348 0
1 -358 351 0
1 -358 -348 0
1 -308 -298 0
1 -308 299 0
1 308 -358 0
1 319 -359 0
1 -360 357 0
1 -360 314 0
1 -360 -319 0
1 -360 -301 0
1 -361 360 0
1 361 300 0
1 -352 354 0
1 -352 360 0
1 -352 319 0
1 352 -312 0
1 351 -355 0
1 -351 -319 0
1 351 358 0
1 -318 -362 0
1 318 361 0
1 -317 -354 0
1 317 -363 0
1 -317 -323 0
1 364 316 0
1 -364 259 0
1 365 316 0
1 -365 263 0
1 -362 364 0
1 -362 318 0
1 362 -319 0
1 -362 365 0
1 309 -360 0
1 -359 -365 0
1 -366 -360 0
1 366 310 0
1 -339 330 0
1 339 367 0
1 339 278 0
1 341 334 0
1 341 337 0
1 -341 368 0
1 341 328 0
1 341 338 0
1 341 339 0
1 369 -368 0
1 -369 -330 0
1 -369 -367 0
1 370 -371 0
1 -370 347 0
1 -370 -336 0
1 -370 369 0
1 330 367 0
1 330 -341 0
1 367 330 0
1 -367 -372 0
1 367 -348 0
1 -368 369 0
1 -373 -368 0
1 348 -350 0
1 348 358 0
1 349 340 0
1 349 -336 0
1 349 285 0
1 372 340 0
1 372 350 0
1 372 367 0
1 357 -371 0
1 -357 360 0
1 357 -367 0
1 374 -348 0
1 340 -334 0
1 340 354 0
1 340 374 0
1 -340 372 0
1 340 348 0
1 -340 -369 0
1 -371 349 0
1 -371 369 0
1 355 375 0
1 355 345 0
1 355 352 0
1 354 -376 0
1 -354 -374 0
1 -354 -352 0
1 377 378 0
1 -377 -340 0
1 377 375 0
1 -377 351 0
1 377 352 0
1 -378 -340 0
1 -378 -376 0
1 -378 351 0
1 378 374 0
1 -378 346 0
1 -375 378 0
1 375 -354 0
1 379 -377 0
1 379 355 0
